p edge 77 406
e 1 2
e 1 3
e 2 3
e 3 4
e 3 7
e 3 9
e 3 11
e 3 14
e 3 16
e 3 18
e 3 20
e 3 22
e 3 24
e 3 27
e 3 29
e 3 31
e 3 33
e 3 35
e 3 37
e 3 40
e 3 42
e 3 44
e 3 46
e 3 48
e 3 50
e 3 52
e 3 54
e 3 56
e 3 58
e 3 60
e 3 62
e 3 64
e 3 65
e 3 66
e 3 68
e 3 71
e 3 73
e 3 74
e 3 75
e 3 77
e 4 5
e 4 8
e 5 6
e 5 8
e 5 22
e 6 7
e 6 8
e 6 22
e 7 8
e 8 9
e 8 12
e 8 14
e 8 17
e 8 19
e 8 21
e 8 23
e 8 25
e 8 27
e 8 29
e 8 31
e 8 33
e 8 35
e 8 37
e 8 39
e 8 42
e 8 45
e 8 47
e 8 49
e 8 51
e 8 53
e 8 55
e 8 57
e 8 59
e 8 61
e 8 64
e 8 65
e 8 66
e 8 69
e 8 71
e 8 73
e 8 74
e 8 75
e 8 77
e 9 10
e 9 15
e 10 11
e 10 13
e 10 15
e 10 17
e 10 18
e 10 37
e 10 59
e 11 12
e 11 15
e 11 59
e 12 13
e 12 15
e 12 18
e 12 22
e 13 14
e 13 15
e 13 16
e 13 18
e 13 37
e 13 59
e 14 15
e 15 16
e 15 17
e 15 19
e 15 21
e 15 23
e 15 25
e 15 27
e 15 30
e 15 32
e 15 34
e 15 36
e 15 38
e 15 42
e 15 44
e 15 46
e 15 48
e 15 51
e 15 53
e 15 55
e 15 58
e 15 60
e 15 62
e 15 64
e 15 65
e 15 66
e 15 68
e 15 70
e 15 73
e 15 74
e 15 76
e 16 17
e 16 59
e 17 18
e 17 22
e 18 19
e 18 21
e 18 23
e 18 25
e 18 30
e 18 32
e 18 34
e 18 36
e 18 38
e 18 51
e 18 53
e 18 55
e 18 70
e 18 76
e 19 20
e 19 22
e 19 41
e 19 43
e 19 50
e 20 21
e 20 26
e 20 28
e 20 30
e 20 38
e 20 47
e 20 49
e 21 22
e 21 41
e 21 54
e 21 63
e 22 23
e 22 25
e 22 39
e 22 45
e 22 47
e 22 49
e 22 51
e 22 53
e 22 55
e 22 57
e 22 59
e 22 61
e 22 69
e 23 24
e 23 26
e 23 28
e 23 40
e 24 25
e 24 34
e 24 36
e 24 39
e 24 41
e 24 43
e 24 45
e 25 26
e 25 54
e 25 63
e 26 27
e 26 29
e 26 31
e 26 34
e 26 36
e 26 39
e 26 41
e 26 43
e 26 45
e 26 48
e 26 50
e 26 62
e 26 65
e 27 28
e 28 29
e 28 32
e 28 34
e 28 39
e 28 41
e 28 46
e 28 48
e 28 51
e 28 54
e 28 61
e 28 63
e 28 73
e 28 77
e 29 30
e 29 38
e 30 31
e 30 37
e 30 39
e 30 41
e 30 43
e 30 45
e 30 50
e 30 59
e 31 32
e 31 63
e 32 33
e 32 37
e 32 40
e 32 43
e 32 45
e 32 47
e 32 50
e 32 52
e 32 56
e 32 57
e 32 59
e 32 67
e 32 69
e 32 71
e 32 72
e 32 75
e 33 34
e 33 41
e 33 63
e 34 35
e 34 37
e 34 40
e 34 47
e 34 49
e 34 59
e 35 36
e 35 41
e 35 43
e 36 37
e 36 49
e 36 54
e 36 59
e 36 61
e 36 63
e 36 77
e 37 38
e 37 70
e 37 76
e 38 39
e 38 41
e 38 54
e 38 59
e 38 61
e 38 63
e 38 77
e 39 40
e 39 44
e 39 60
e 40 41
e 40 51
e 40 61
e 40 63
e 41 42
e 41 44
e 41 47
e 41 49
e 41 60
e 41 64
e 42 43
e 43 44
e 43 46
e 43 49
e 43 51
e 43 54
e 43 61
e 43 63
e 43 73
e 43 77
e 44 45
e 44 59
e 45 46
e 45 54
e 45 63
e 46 47
e 46 57
e 46 59
e 46 67
e 46 69
e 46 72
e 47 48
e 47 54
e 47 63
e 48 49
e 48 59
e 49 50
e 49 62
e 50 51
e 50 61
e 50 63
e 51 52
e 51 56
e 51 67
e 51 72
e 52 53
e 52 61
e 52 63
e 52 67
e 52 69
e 52 76
e 53 54
e 53 63
e 53 72
e 54 55
e 54 57
e 54 67
e 54 69
e 54 70
e 54 72
e 54 76
e 55 56
e 55 63
e 55 67
e 56 57
e 56 61
e 56 63
e 56 70
e 56 72
e 57 58
e 57 63
e 57 67
e 57 76
e 58 59
e 58 61
e 58 63
e 58 72
e 59 60
e 59 62
e 59 68
e 59 70
e 59 76
e 60 61
e 60 63
e 61 62
e 61 67
e 61 68
e 61 70
e 61 72
e 61 76
e 62 63
e 63 64
e 63 65
e 63 66
e 63 67
e 63 68
e 63 69
e 63 70
e 63 71
e 63 72
e 63 74
e 63 75
e 63 76
e 66 67
e 67 68
e 67 70
e 67 72
e 67 73
e 67 75
e 67 77
e 68 69
e 69 70
e 69 72
e 70 71
e 70 77
e 71 72
e 72 73
e 72 74
e 72 76
e 72 77
e 75 76
e 76 77
